\ Model MaxExample
\ LP format - for model browsing. Use MPS format to capture full model detail.
Minimize
  165 f_0,0 + 75 f_0,1 + 135 f_0,2 + 70 f_1,0 + 40 f_1,1 + 40 f_1,2
   + 60 f_1,3 + 30 f_1,4 + 130 f_2,0 + 70 f_2,1 + 70 f_2,2 + 55 f_3,0
   + 25 f_3,1 + 1000 s_0 + 1000 s_1 + 1000 s_2 + 1000 s_3 + 1000 s_4
   + 1000 s_5 + 1000 s_6
Subject To
 R0: 15 f_0,0 + 15 f_0,1 + 5 f_1,0 + 5 f_1,1 + 5 f_1,2 - s_0 - s_1 - s_2
   - s_3 - s_4 - s_5 - s_6 <= 20
 R1: 15 f_0,2 + 5 f_1,3 + 5 f_1,4 - s_0 - s_1 - s_2 - s_3 - s_4 - s_5 - s_6
   <= 10
 R2: 15 f_0,0 + 5 f_1,0 + 5 f_1,1 + 10 f_2,0 + 10 f_2,1 - s_0 - s_1 - s_2
   - s_3 - s_4 - s_5 - s_6 <= 10
 R3: 15 f_0,1 + 5 f_1,2 + 10 f_2,2 - s_0 - s_1 - s_2 - s_3 - s_4 - s_5
   - s_6 <= 20
 R4: 15 f_0,0 + 15 f_0,2 + 5 f_1,0 + 5 f_1,3 + 10 f_2,0 + 5 f_3,0 - s_0
   - s_1 - s_2 - s_3 - s_4 - s_5 - s_6 <= 40
 R5: 5 f_1,1 + 5 f_1,4 + 10 f_2,1 + 5 f_3,1 - s_0 - s_1 - s_2 - s_3 - s_4
   - s_5 - s_6 <= 10
 R6: 5 f_1,0 + 5 f_1,2 + 5 f_1,3 + 10 f_2,0 + 10 f_2,2 + 5 f_3,0 - s_0
   - s_1 - s_2 - s_3 - s_4 - s_5 - s_6 <= 30
 R7: f_0,0 + f_0,1 + f_0,2 = 1
 R8: f_1,0 + f_1,1 + f_1,2 + f_1,3 + f_1,4 = 1
 R9: f_2,0 + f_2,1 + f_2,2 = 1
 R10: f_3,0 + f_3,1 = 1
Bounds
End
